p cnf 11 45
10 -8 -4 0
6 4 -2 0
9 7 6 0
7 3 -9 0
3 2 4 0
11 -8 -1 0
6 10 7 0
4 5 6 0
3 9 -11 0
8 -6 10 0
5 -6 1 0
3 11 -2 0
4 -11 -1 0
-8 -6 -10 0
-3 4 9 0
7 -8 -9 0
-6 -3 8 0
-10 -4 -7 0
11 5 4 0
10 -3 2 0
11 7 10 0
-1 -5 3 0
1 9 -5 0
6 4 10 0
-9 -10 -6 0
3 9 -8 0
11 4 2 0
-1 6 7 0
-9 5 -7 0
1 8 11 0
-6 -8 -1 0
-11 10 -7 0
-2 -6 -5 0
11 -8 -1 0
1 7 -4 0
1 11 2 0
-2 -10 6 0
-7 3 -2 0
5 -10 1 0
-5 -1 -10 0
-6 1 -11 0
-10 1 -11 0
-4 -2 -11 0
3 6 11 0
4 -8 -5 0
